File: D:\ML4VRP2024\Instances\CVRP\json\X-n129-k18.json exists.
Route #1: 75 66 64 18 59 1 23 
Route #2: 9 19 54 6 45 48 2 
Route #3: 3 113 82 124 46 33 
Route #4: 119 80 87 98 4 110 40 55 
Route #5: 5 106 128 107 36 65 11 85 
Route #6: 86 52 27 7 22 21 34 
Route #7: 38 118 8 37 
Route #8: 53 123 122 126 71 105 104 10 79 76 
Route #9: 125 31 97 42 99 16 12 96 
Route #10: 93 39 43 30 62 56 13 
Route #11: 47 127 74 14 102 32 114 73 95 
Route #12: 15 90 44 60 
Route #13: 68 81 17 101 41 61 
Route #14: 78 50 20 63 121 94 111 29 58 
Route #15: 24 28 83 109 51 120 69 
Route #16: 91 103 89 84 25 77 35 57 
Route #17: 70 115 26 108 100 92 116 
Route #18: 117 112 72 49 
Route #19: 88 67 
